100
128
12
30
8
18
16
63
26
16
49
32
1
26
5
49
4
64
35
41
60
7
60
43
1
8
38
34
32
2
54
56
39
35
56
42
7
3
10
55
9
31
42
11
7
2
41
53
4
1
3
62
11
57
58
32
5
30
53
63
14
13
31
24
36
29
25
44
52
42
2
60
45
4
1
60
36
23
4
8
8
56
6
43
40
64
43
3
2
1
61
64
36
64
45
6
44
6
6
31
39
1